# Solution for model GasLib-40
# Objective value = 1.3152527370003625e+01
loadshed[innode_1] 0
loadshed[innode_2] 0
loadshed[innode_3] 0
loadshed[innode_4] 0
loadshed[innode_5] 0
loadshed[innode_6] 0
loadshed[innode_7] 0
loadshed[innode_8] 0
loadshed[source_1] -2.4454064424279531e-01
loadshed[source_2] 0.141757223188536
loadshed[source_3] 1.8597972859988621e-01
loadshed[sink_1] 0
loadshed[sink_2] 0
loadshed[sink_3] 0
loadshed[sink_4] 0
loadshed[sink_5] 0
loadshed[sink_6] 0
loadshed[sink_7] 0
loadshed[sink_8] 0
loadshed[sink_9] 0
loadshed[sink_10] 0
loadshed[sink_11] 0
loadshed[sink_12] 8.0423097294289680e-01
loadshed[sink_13] 0
loadshed[sink_14] 0
loadshed[sink_15] 0
loadshed[sink_16] 0
loadshed[sink_17] 0
loadshed[sink_18] 0
loadshed[sink_19] 0
loadshed[sink_20] 0
loadshed[sink_21] 0
loadshed[sink_22] 0
loadshed[sink_23] 0
loadshed[sink_24] 0
loadshed[sink_25] 0
loadshed[sink_26] 0
loadshed[sink_27] 0
loadshed[sink_28] 0
loadshed[sink_29] 0
flow[source_1,sink_3] 196.749776154078
flow[innode_1,sink_16] 1.6354166666666970e+01
flow[innode_6,sink_13] -1.4209524155719294e+01
flow[sink_13,sink_14] -3.0563690822385961e+01
flow[sink_14,sink_10] -4.6917857489052665e+01
flow[sink_25,sink_26] 1.7901647172707828e+02
flow[sink_26,sink_9] 1.5038913929666393e+02
flow[sink_9,sink_18] 1.3403497262999727e+02
flow[sink_26,sink_4] 1.2273165763748239e+01
flow[sink_4,sink_20] -2.0435167569590590e+01
flow[sink_18,sink_6] 1.1768080596333061e+02
flow[sink_25,innode_8] -1.6404144282074162e+02
flow[sink_6,sink_7] 6.8618305963330386e+01
flow[sink_6,sink_22] 3.2708333333333641e+01
flow[sink_7,sink_24] 3.5909972629996382e+01
flow[sink_22,sink_1] 1.6354166666666970e+01
flow[sink_24,sink_21] 1.9555805963329711e+01
flow[sink_21,sink_12] 3.2016392966630418e+00
flow[sink_7,sink_5] 1.6354166666667368e+01
flow[sink_5,sink_17] 0
flow[sink_17,sink_4] -1.6354166666672256e+01
flow[sink_17,sink_8] 0
flow[sink_3,sink_23] 16.3541666666697
flow[sink_8,sink_20] -1.6354166666668334e+01
flow[sink_25,sink_20] 5.3143500902925666e+01
flow[sink_25,sink_15] -7.0263172320210131e+01
flow[sink_15,sink_29] -1.0297150565356105e+02
flow[sink_29,sink_28] 1.6354166666667879e+01
flow[sink_29,sink_2] 0
flow[sink_2,sink_15] -1.6354166666684250e+01
flow[sink_29,innode_7] -1.3567983898689567e+02
flow[innode_4,sink_19] 5.0279204093998942e+01
flow[sink_19,innode_3] 4.6838009321789173e+01
flow[innode_4,innode_5] 7.8409486728387037e+01
flow[sink_27,innode_5] -7.8409486728387037e+01
flow[sink_27,sink_19] 6.2055320061720408e+01
flow[sink_10,sink_11] 3.2708333333333641e+01
flow[sink_10,innode_2] -4.9142348167263776e+01
flow[sink_10,innode_3] -4.6838009321789173e+01
flow[innode_6,sink_25] 1.4209524155719294e+01
flow[sink_11,innode_1] 1.6354166666666970e+01
flow[sink_19,innode_2] 4.9142348167263776e+01
flow[source_3,innode_4] 1.2868869082238604e+02
flow[source_2,innode_7] 1.3567983898689567e+02
flow[sink_3,innode_8] 1.6404144282074162e+02
pressure[innode_1] 7.6227233957221188e+01
pressure[innode_2] 7.8976311330009892e+01
pressure[innode_3] 7.8872593862195984e+01
pressure[innode_4] 81.01325
pressure[innode_5] 8.0959315820483170e+01
pressure[innode_6] 7.4026755424898553e+01
pressure[innode_7] 81.01325
pressure[innode_8] 80.3555906594557
pressure[source_1] 81.01325
pressure[source_2] 81.01325
pressure[source_3] 81.01325
pressure[sink_1] 4.2324262007024345e+01
pressure[sink_2] 74.3142075268544
pressure[sink_3] 80.3555906594557
pressure[sink_4] 5.9858288392130213e+01
pressure[sink_5] 3.6681803810926681e+01
pressure[sink_6] 4.4425339617411716e+01
pressure[sink_7] 43.4833738378214
pressure[sink_8] 6.0217851879790445e+01
pressure[sink_9] 5.2417552321114883e+01
pressure[sink_10] 7.6378935264824733e+01
pressure[sink_11] 7.6227233957221188e+01
pressure[sink_12] 1.01325
pressure[sink_13] 7.4105090156936953e+01
pressure[sink_14] 7.4159786485114410e+01
pressure[sink_15] 7.4367600276620848e+01
pressure[sink_16] 7.5205584122403508e+01
pressure[sink_17] 5.9233286068327651e+01
pressure[sink_18] 4.7567767518438018e+01
pressure[sink_19] 7.8976311330009892e+01
pressure[sink_20] 6.1357507303378732e+01
pressure[sink_21] 2.1525684881539613e+00
pressure[sink_22] 4.3388031149379351e+01
pressure[sink_23] 8.0190872647795914e+01
pressure[sink_24] 2.36913086968716
pressure[sink_25] 7.4026755424898553e+01
pressure[sink_26] 6.1418730451704178e+01
pressure[sink_27] 80.3086619657904
pressure[sink_28] 7.7089063558641925e+01
pressure[sink_29] 77.3843458322591
interdiction[source_1,sink_3] 0
interdiction[innode_1,sink_16] 0
interdiction[innode_6,sink_13] 0
interdiction[sink_13,sink_14] 0
interdiction[sink_14,sink_10] 0
interdiction[sink_25,sink_26] 0
interdiction[sink_26,sink_9] 0
interdiction[sink_9,sink_18] 0
interdiction[sink_26,sink_4] 0
interdiction[sink_4,sink_20] 0
interdiction[sink_18,sink_6] 0
interdiction[sink_25,innode_8] 0
interdiction[sink_6,sink_7] 0
interdiction[sink_6,sink_22] 0
interdiction[sink_7,sink_24] 0
interdiction[sink_22,sink_1] 0
interdiction[sink_24,sink_21] 0
interdiction[sink_21,sink_12] 0
interdiction[sink_7,sink_5] 0
interdiction[sink_5,sink_17] 1
interdiction[sink_17,sink_4] 0
interdiction[sink_17,sink_8] 1
interdiction[sink_3,sink_23] 0
interdiction[sink_8,sink_20] 0
interdiction[sink_25,sink_20] 0
interdiction[sink_25,sink_15] 0
interdiction[sink_15,sink_29] 0
interdiction[sink_29,sink_28] 0
interdiction[sink_29,sink_2] 1
interdiction[sink_2,sink_15] 0
interdiction[sink_29,innode_7] 0
interdiction[innode_4,sink_19] 0
interdiction[sink_19,innode_3] 0
interdiction[innode_4,innode_5] 0
interdiction[sink_27,innode_5] 0
interdiction[sink_27,sink_19] 0
interdiction[sink_10,sink_11] 0
interdiction[sink_10,innode_2] 0
interdiction[sink_10,innode_3] 0
interdiction[innode_6,sink_25] 0
interdiction[sink_11,innode_1] 0
interdiction[sink_19,innode_2] 0
interdiction[source_3,innode_4] 0
interdiction[source_2,innode_7] 0
interdiction[sink_3,innode_8] 0
WCcheckFlow[source_1,sink_3] 39
WCcheckFlow[innode_1,sink_16] 1
WCcheckFlow[innode_6,sink_13] 13
WCcheckFlow[sink_13,sink_14] 12
WCcheckFlow[sink_14,sink_10] 11
WCcheckFlow[sink_25,sink_26] 15
WCcheckFlow[sink_26,sink_9] 10
WCcheckFlow[sink_9,sink_18] 9
WCcheckFlow[sink_26,sink_4] 4
WCcheckFlow[sink_4,sink_20] 2
WCcheckFlow[sink_18,sink_6] 8
WCcheckFlow[sink_25,innode_8] -36
WCcheckFlow[sink_6,sink_7] 5
WCcheckFlow[sink_6,sink_22] 2
WCcheckFlow[sink_7,sink_24] 3
WCcheckFlow[sink_22,sink_1] 1
WCcheckFlow[sink_24,sink_21] 2
WCcheckFlow[sink_21,sink_12] 1
WCcheckFlow[sink_7,sink_5] 1
WCcheckFlow[sink_5,sink_17] 0
WCcheckFlow[sink_17,sink_4] -1
WCcheckFlow[sink_17,sink_8] 0
WCcheckFlow[sink_3,sink_23] 1
WCcheckFlow[sink_8,sink_20] -1
WCcheckFlow[sink_25,sink_20] 0
WCcheckFlow[sink_25,sink_15] 6
WCcheckFlow[sink_15,sink_29] 4
WCcheckFlow[sink_29,sink_28] 1
WCcheckFlow[sink_29,sink_2] 0
WCcheckFlow[sink_2,sink_15] -1
WCcheckFlow[sink_29,innode_7] 2
WCcheckFlow[innode_4,sink_19] -4
WCcheckFlow[sink_19,innode_3] -5
WCcheckFlow[innode_4,innode_5] 2
WCcheckFlow[sink_27,innode_5] -1
WCcheckFlow[sink_27,sink_19] 0
WCcheckFlow[sink_10,sink_11] 3
WCcheckFlow[sink_10,innode_2] 1
WCcheckFlow[sink_10,innode_3] 6
WCcheckFlow[innode_6,sink_25] -14
WCcheckFlow[sink_11,innode_1] 2
WCcheckFlow[sink_19,innode_2] 0
WCcheckFlow[source_3,innode_4] -1
WCcheckFlow[source_2,innode_7] -1
WCcheckFlow[sink_3,innode_8] 37
